CMD:
./solvers/bin/cadical --plain --no-reduce -t 1600 ./data/cnfs//nusmvguidancep6/nusmvguidancep6.80.cnf

c --- [ banner ] -------------------------------------------------------------
c 
c CaDiCaL SAT Solver
c Copyright (c) 2016-2024
c A. Biere, M. Fleury, N. Froleyks, K. Fazekas, F. Pollitt, T. Faller
c JKU Linz, University of Freiburg, TU Wien
c 
c Version 2.1.3 5296d3d2a9bf48c154ab2acb5e44625776d821bf
c g++ (Gentoo 12.3.1_p20230526 p2) 12.3.1 20230526 -Wall -Wextra -O3 -DNDEBUG
c Sat Aug 9 07:26:21 PDT 2025 Linux cedar2.int.cedar.computecanada.ca 5.14.0-362.24.2.el9_3.x86_64 x86_64
c 
c --- [ limit ] --------------------------------------------------------------
c 
c setting time limit to 1600 seconds real time (due to '-t 1600')
c 
c --- [ parsing input ] ------------------------------------------------------
c 
c reading DIMACS file from './data/cnfs//nusmvguidancep6/nusmvguidancep6.80.cnf'
c opening file to read './data/cnfs//nusmvguidancep6/nusmvguidancep6.80.cnf'
c found 'p cnf 147101 420476' header
c parsed 420476 clauses in 0.07 seconds process time
c 
c --- [ options ] ------------------------------------------------------------
c 
c   --compact=false                (different from default 'true')
c   --decompose=false              (different from default 'true')
c   --deduplicate=false            (different from default 'true')
c   --elim=false                   (different from default 'true')
c   --probe=false                  (different from default 'true')
c   --reduce=false                 (different from default 'true')
c   --subsume=false                (different from default 'true')
c   --ternary=false                (different from default 'true')
c   --transred=false               (different from default 'true')
c   --vivify=false                 (different from default 'true')
c 
c --- [ solving ] ------------------------------------------------------------
c 
c time measured in process time since initialization
c 
c  seconds  reductions  redundant  irredundant
c         MB    restarts       trail       variables
c          level   conflicts       glue          remaining
c 
c *  0.07 69  0 0   0    0    0  0% 0 418358 134812 92%
c {  0.07 69  0 0   0    0    0  0% 0 418358 134812 92%
c i  0.08 69 27 0   0    2    1 11% 0 418358 134810 92%
c i  0.08 69 26 0   0    3    1 11% 0 418358 134808 92%
c i  0.08 69 94 0   0   43   40 12% 1 418358 134787 92%
c i  0.09 69 97 0   0   46   41 12% 1 418358 134785 92%
c i  0.12 70 94 0  13  206  196 14% 1 418358 134764 92%
c i  0.13 70 125 0  23  239  226 14% 1 418358 134740 92%
c i  0.21 70 150 0  72  723  647 20% 2 418358 134739 92%
c i  0.22 70 154 0  72  726  649 20% 2 418358 134735 92%
c i  0.22 70 155 0  72  727  649 20% 2 418358 134733 92%
c i  0.22 70 164 0  72  734  654 21% 2 418358 134700 92%
c i  0.22 70 167 0  72  737  656 21% 2 418358 134312 91%
c i  0.22 70 199 0  74  770  687 22% 2 418358 133875 91%
c i  0.22 70 198 0  74  772  688 22% 2 418358 133453 91%
c i  0.22 70 198 0  74  773  688 22% 2 418358 133412 91%
c i  0.22 70 197 0  74  779  693 22% 2 418358 133405 91%
c }  0.24 70 315 0  77 1000  909 27% 3 418358 132277 90%
c [  0.24 70  0 0  77 1000  909  0% 0 418358 132277 90%
c O  0.24 70 43 0  77 1004  913 13% 3 418358 132277 90%
c 
c  seconds   reductions  redundant  irredundant
c         MB     restarts       trail       variables
c           level   conflicts       glue          remaining
c 
c i  0.30 72 681 0  77 1442 1344 64% 2 418358 132248 90%
c i  0.30 72 695 0  77 1461 1359 65% 2 418358 131901 90%
c i  0.32 72 831 0  77 1939 1792 77% 2 418358 131894 90%
c i  0.33 72 797 0  78 2110 1936 75% 2 418358 131869 90%
c ]  0.39 72 483 0  78 3000 2699 49% 3 418358 131869 90%
c {  0.39 72 315 0  78 3000 2699 27% 3 418358 131869 90%
c i  0.39 72 316 0  79 3001 2699 27% 3 418358 131867 90%
c i  0.39 72 316 0  79 3002 2699 27% 3 418358 131860 90%
c i  0.39 72 316 0  79 3003 2699 27% 3 418358 131852 90%
c i  0.39 72 317 0  80 3004 2699 27% 3 418358 131845 90%
c F  0.39 72 316 0  80 3005 2700 27% 3 418358 131841 90%
c i  0.45 72 282 0  99 3325 2950 27% 3 418358 131821 90%
c i  0.50 72 260 0 129 3474 3069 26% 3 418358 131811 90%
c i  0.52 72 231 0 158 3669 3245 25% 3 418358 131804 90%
c i  0.52 72 231 0 158 3671 3246 25% 3 418358 131798 90%
c i  0.52 72 228 0 158 3689 3260 25% 3 418358 131797 90%
c i  0.54 72 192 0 173 4019 3553 23% 3 418358 131722 90%
c i  0.55 72 179 0 183 4203 3723 23% 3 418358 131699 90%
c i  0.58 72 163 0 215 4507 3998 22% 3 418358 131696 90%
c i  0.58 72 157 0 217 4617 4090 22% 3 418358 131694 90%
c 
c  seconds   reductions  redundant  irredundant
c         MB     restarts       trail       variables
c           level   conflicts       glue          remaining
c 
c i  0.59 72 153 0 221 4688 4136 22% 3 418358 131651 89%
c i  0.59 72 147 0 234 4808 4246 21% 3 418358 131642 89%
c i  0.60 72 143 0 241 4887 4317 21% 3 418358 131623 89%
c i  0.60 72 143 0 241 4896 4320 21% 3 418358 131614 89%
... skipped 10 lines ...
c i  0.66 72 124 0 330 5414 4778 20% 4 418358 126156 86%
c i  0.66 72 124 0 330 5415 4778 20% 4 418358 126150 86%
c i  0.66 72 123 0 330 5447 4787 20% 4 418358 125401 85%
c i  0.68 72 112 0 338 5842 5150 20% 4 418358 125258 85%
c i  0.68 72 112 0 338 5843 5150 20% 4 418358 125255 85%
c i  0.68 72 112 0 339 5856 5162 20% 4 418358 125235 85%
c 
c  seconds   reductions  redundant  irredundant
c         MB     restarts       trail       variables
c           level   conflicts       glue          remaining
c 
c i  0.68 72 110 0 339 5905 5208 20% 4 418358 125153 85%
c i  0.68 72 110 0 339 5907 5209 20% 4 418358 125151 85%
c i  0.68 72 110 0 339 5912 5212 20% 4 418358 125135 85%
c #  0.69 72 108 0 344 6006 5294 20% 4 418358 125131 85%
c i  0.69 72 108 0 347 6018 5305 20% 4 418358 125129 85%
c i  0.71 72 105 0 360 6255 5515 20% 4 418358 125125 85%
c i  0.71 72 105 0 360 6259 5518 20% 4 418358 125099 85%
c i  0.71 72 103 0 362 6336 5574 20% 4 418358 125047 85%
c i  0.72 72 100 0 365 6464 5686 20% 4 418358 125015 85%
c i  0.72 72 99 0 374 6530 5747 20% 4 418358 125012 85%
c i  0.72 72 99 0 374 6531 5747 20% 4 418358 125005 85%
c i  0.73 72 97 0 377 6598 5798 20% 4 418358 124790 85%
c i  0.73 72 97 0 379 6646 5840 20% 4 418358 124760 85%
c i  0.74 72 96 0 381 6699 5883 20% 4 418358 124735 85%
c i  0.74 72 95 0 381 6706 5886 20% 4 418358 122786 83%
c i  0.74 72 95 0 381 6707 5886 20% 4 418358 122785 83%
c i  0.74 72 95 0 383 6754 5930 20% 4 418358 122764 83%
c i  0.74 72 94 0 394 6800 5965 20% 4 418358 122753 83%
c i  0.75 72 93 0 409 6870 6029 20% 4 418358 122751 83%
c i  0.75 72 91 0 430 6971 6101 20% 4 418358 122750 83%
c 
c  seconds  reductions  redundant  irredundant
c         MB    restarts       trail       variables
c          level   conflicts       glue          remaining
c 
c i  0.76 72 91 0 430 6983 6105 20% 4 418358 122744 83%
c }  0.76 72 90 0 434 7002 6119 20% 4 418358 122744 83%
c [  0.76 72 483 0 434 7002 6119 49% 3 418358 122744 83%
c i  0.81 73 361 0 435 7751 6777 42% 3 418358 122730 83%
c i  0.82 73 352 0 435 7822 6838 42% 3 418358 122720 83%
c i  0.82 73 351 0 435 7826 6840 42% 3 418358 122714 83%
c i  0.82 73 348 0 435 7856 6866 42% 3 418358 119552 81%
c i  0.82 73 347 0 435 7864 6873 42% 3 418358 118673 81%
c i  0.83 73 328 0 435 8037 7018 40% 3 418358 118663 81%
c i  0.84 73 325 0 435 8063 7040 40% 3 418358 118662 81%
c ]  0.84 73 318 0 435 8131 7091 40% 3 418358 117382 80%
c 0  0.84 73 318 0 435 8131 7091 40% 3 418358 117382 80%
c 
c --- [ result ] -------------------------------------------------------------
c 
s UNSATISFIABLE
c 
c --- [ run-time profiling ] -------------------------------------------------
c 
c process time taken by individual solving procedures
c (percentage relative to process time for solving)
c 
c         0.77   99.98% search
c         0.53   69.28% unstable
c         0.24   30.57% stable
c         0.07    9.51% parse
c         0.00    0.11% lucky
c         0.00    0.00% simplify
c   =================================
c         0.77   91.25% solve
c 
c last line shows process time for solving
c (percentage relative to total process time)
c 
c --- [ statistics ] ---------------------------------------------------------
c 
c chronological:              3613        44.43 %  of conflicts
c conflicts:                  8131     10553.79    per second
c decisions:                 42244     54831.43    per second
c fixed:                     29719        20.20 %  of all variables
c learned:                    7668        94.31 %  per conflict
c learned_lits:             110748       100.00 %  learned literals
c minimized:                     0         0.00 %  learned literals
c shrunken:                  20163        18.21 %  learned literals
c minishrunken:              17451        15.76 %  learned literals
c otfs:                        105         1.29 %  of conflict
c propagations:           11317455        14.69 M  per second
c rephased:                      3      2710.33    interval
c restarts:                    435        18.69    interval
c stabilizing:                   2        38.48 %  of conflicts
c subsumed:                    495         0.12 %  of all clauses
c strengthened:                105         0.02 %  of all clauses
c 
c seconds are measured in process time for solving
c 
c --- [ resources ] ----------------------------------------------------------
c 
c total process time since initialization:         0.84    seconds
c total real time since initialization:            0.85    seconds
c maximum resident set size of process:           70.45    MB
c 
c --- [ shutting down ] ------------------------------------------------------
c 
c exit 20
